NAME : d2103
TYPE : OP
DIMENSION : 2103
COST_LIMIT : 40225
ROUTE_NODES : 1069
ROUTE_SCORE : 1069
ROUTE_COST : 40225
NODE_SEQUENCE_SECTION
1
806
5
760
8
716
713
717
718
711
712
719
763
764
810
811
765
766
767
812
805
768
769
770
771
814
815
772
773
774
816
817
775
731
732
733
777
818
819
804
779
778
734
735
736
737
738
739
783
784
785
786
787
788
789
790
791
792
793
794
795
796
797
1317
798
799
800
801
802
803
1319
1320
1321
1322
1323
1324
1325
1326
1369
1368
1367
1366
1365
1364
1363
1362
1361
1360
1359
1358
1357
1356
1355
1400
1401
1402
1403
1404
1405
1406
1407
1408
1409
1410
1411
1412
1413
1414
1415
1416
1417
1418
1419
1420
1421
1394
1393
1392
1391
1390
1425
1426
1427
1388
1387
1386
1385
1384
1383
1382
1381
1380
1379
1378
1437
1436
1440
1441
1494
1493
1492
1491
1490
1489
1488
1447
1448
1449
1450
1451
1452
1453
1454
1455
1456
1457
1458
1459
1460
1461
1462
1463
1464
1465
1466
1467
1468
1469
1470
1471
1472
1473
1474
1475
1476
1477
1478
1479
1517
1518
1519
1520
1521
1522
1523
1524
1525
1526
1527
1528
1529
1530
1531
1532
1533
1534
1535
1536
1537
1538
1539
1540
1541
1542
1543
1544
1511
1510
1509
1508
1507
1506
1505
1504
1503
1502
1501
1500
1499
1498
1557
1556
1555
1554
1553
1552
1551
1550
1565
1564
1563
1562
1561
1560
1559
1558
1617
1616
1615
1614
1613
1612
1611
1610
1609
1608
1607
1606
1605
1604
1603
1602
1601
1600
1599
1598
1577
1578
1579
1580
1581
1582
1583
1584
1585
1586
1587
1588
1589
1590
1591
1592
1593
1594
1595
1596
1597
1637
1636
1635
1634
1633
1632
1631
1664
1665
1666
1667
1668
1669
1627
1626
1625
1624
1623
1622
1621
1620
1619
1618
1677
1676
1680
1681
1682
1683
1684
1685
1686
1687
1688
1689
1690
1691
1692
1693
1694
1695
1696
1697
1698
1699
1700
1701
1702
1703
1704
1705
1706
1707
1708
1709
1710
1711
1712
1713
1714
1715
1716
1717
1718
1719
1720
1721
1722
1723
1724
1725
1726
1727
1728
1729
1730
1731
1732
1733
1734
1735
1736
1737
1739
1738
1797
1796
1795
1794
1793
1792
1791
1790
1789
1788
1787
1786
1785
1784
1783
1782
1781
1780
1779
1755
1756
1757
1758
1759
1760
1761
1762
1763
1764
1765
1766
1767
1768
1769
1825
1824
1823
1822
1821
1820
1819
1818
1817
1816
1815
1814
1813
1842
1843
1812
1811
1810
1809
1808
1807
1806
1805
1804
1803
1802
1801
1800
1799
1798
1857
1856
1862
1863
1864
1865
1866
1867
1868
1869
1870
1871
1872
1873
1874
1875
1876
1877
1878
1879
1880
1881
1882
1883
1884
1885
1886
1887
1888
1889
1890
1891
1892
1893
1894
1895
1896
1897
1898
1899
1900
1901
1902
1903
1904
1905
1906
1907
1928
1927
1926
1925
1924
1923
1922
1921
1920
1919
1918
1977
1976
1975
1974
1973
1972
1971
1970
1969
1968
1967
1966
1965
1964
1963
1962
1961
1934
1935
1936
1937
1938
1939
1940
1941
1942
1943
1944
1945
1946
1947
1948
1949
1950
1951
1952
1953
1954
1955
1956
1957
1958
1959
1998
1999
2000
2001
2002
2003
2004
2005
2006
2007
2008
2009
2010
2011
2012
2013
2014
2015
2016
2017
2018
2019
2020
2021
2022
2023
2024
2025
2026
2027
2028
2041
2040
2039
2038
2031
2032
2033
2034
2035
2036
2037
1316
1309
1308
1307
1306
1305
1304
1303
1302
1301
1300
1299
1298
1297
1296
1295
1294
1293
1292
1291
1290
1289
1288
1287
1286
1285
1284
1283
1282
1281
1280
1279
1278
1277
1276
1275
1274
1310
1273
1272
1271
1270
1269
1268
1267
1266
1315
1314
1313
1312
1265
1264
1263
1262
1261
1260
1259
1258
1257
1250
1249
1248
1247
1246
1197
1149
1150
1151
1152
1200
1201
1153
1154
1155
1156
1157
1158
1159
1160
1161
1209
1210
1211
1212
1213
1214
1215
1216
1217
1218
1219
1220
1221
1222
1223
1224
1225
1226
1227
1228
1229
1230
1231
1232
1184
1126
1125
1124
1123
1122
1121
1120
1119
1118
1117
1116
1115
1114
1113
1112
1111
1066
1065
1064
1063
1062
1107
1106
1105
1060
1059
1104
1103
1102
1057
1056
1101
1100
1099
1098
1097
1096
1095
1094
1093
1092
1091
1090
1089
1088
1087
1133
1130
1132
1138
1137
1143
1142
1144
1141
1140
1139
1134
1131
1086
1085
1041
1040
1039
1038
1035
1032
1029
985
982
938
939
940
987
1033
1034
988
989
990
991
944
945
946
947
948
949
996
997
998
999
1000
1001
954
955
956
957
1004
1005
1006
1007
1008
1009
1010
1011
1012
1013
1014
1015
1016
1017
1018
1019
1020
973
918
917
870
869
868
867
866
865
864
863
862
861
908
907
906
905
858
857
904
903
902
901
900
899
898
897
896
895
894
893
892
891
890
889
888
887
840
839
886
932
931
885
884
837
836
880
883
927
930
933
934
929
928
882
881
835
831
828
22
826
825
26
25
27
28
72
73
74
75
76
117
118
119
120
123
122
205
207
208
204
203
202
125
126
127
128
199
198
129
130
131
132
195
194
133
134
135
136
137
138
139
188
187
186
185
184
183
182
181
180
179
178
177
176
175
174
173
172
171
170
169
158
159
160
161
162
163
164
257
258
305
304
303
256
255
254
253
252
299
298
297
296
295
294
293
292
291
290
289
288
287
286
285
284
283
282
281
280
279
232
231
230
229
228
227
274
273
272
271
270
269
268
221
220
219
218
265
309
308
312
313
316
315
359
360
403
402
405
404
408
452
493
494
497
498
505
504
551
552
553
554
555
556
557
558
559
560
561
562
563
564
565
566
567
568
569
570
571
572
629
628
676
675
674
673
672
671
670
669
668
667
666
665
664
663
662
661
660
659
658
657
656
655
703
706
702
699
653
654
650
602
599
596
593
549
546
502
499
495
496
500
501
547
548
594
595
600
601
606
605
651
652
700
701
707
710
714
715
6
4
-1
DEPOT_SECTION
1
-1
EOF
